data;

set TASKS := E1 E2 E3 E4 E5 E6 E7;
set WORKSTATIONS := 1 2 3 4 5 6 7 8 9 10;

set PRECEDENCE := E1,E2
E1,E4
E2,E3
E2,E5
E4,E7
E5,E6;

param t:= E1 1
          E2 5
          E3 4
          E4 3
          E5 5
          E6 6
          E7 5;


param c:= 18;
end;
